\ SCIP STATISTICS
\   Problem name     : Side
\   Variables        : 19 (19 binary, 0 integer, 0 implicit integer, 0 continuous)
\   Constraints      : 7
Minimize
 Obj: +1 x13 +1 x14 +2 x15 +1 x16 +1 x17 +2 x18
Subject to
 c0_lhs: +60 x9 +53 x3 +53 x10 +46 x12 +38 x8 +40 x7 +80 x14 +40 x0 +40 x2 +40 x6 +80 x4 +40 x5 >= +360
 c0_rhs: +60 x9 +53 x3 +53 x10 +46 x12 +38 x8 +40 x7 +80 x14 +40 x0 +40 x2 +40 x6 +80 x4 +40 x5 <= +380
 c1: -52 x4 -32 x1 -26 x10 -23 x12 -20 x2 -20 x6 -19 x8 <= -140
 c2: -10 x14 -6 x13 -6 x3 -5 x7 -5 x0 <= -16
 c3: -2 x11 -2 x18 -2 x15 -1 x16 -1 x17 <= -3
 c4: -1 x1 -1 x10 -1 x2 <= -2
 c5: -1 x9 -1 x5 <= -1
 c6: +1 x1 +1 x11 +1 x9 <= +1
Bounds
 0 <= x0 <= 1
 0 <= x1 <= 1
 0 <= x2 <= 1
 0 <= x3 <= 1
 0 <= x4 <= 1
 0 <= x5 <= 1
 0 <= x6 <= 1
 0 <= x7 <= 1
 0 <= x8 <= 1
 0 <= x9 <= 1
 0 <= x10 <= 1
 0 <= x11 <= 1
 0 <= x12 <= 1
 0 <= x13 <= 1
 0 <= x14 <= 1
 0 <= x15 <= 1
 0 <= x16 <= 1
 0 <= x17 <= 1
 0 <= x18 <= 1
Binaries
 x0 x1 x2 x3 x4 x5 x6 x7 x8 x9 x10 x11 x12 x13 x14 x15 x16 x17 x18
End
